; benchmark generated from python API
(set-info :status unknown)
(declare-fun cell_1_1 () Int)
(declare-fun cell_2_1 () Int)
(declare-fun cell_3_1 () Int)
(declare-fun cell_4_1 () Int)
(declare-fun cell_5_1 () Int)
(declare-fun cell_6_1 () Int)
(declare-fun cell_7_1 () Int)
(declare-fun cell_8_1 () Int)
(declare-fun cell_9_1 () Int)
(declare-fun cell_1_2 () Int)
(declare-fun cell_2_2 () Int)
(declare-fun cell_3_2 () Int)
(declare-fun cell_4_2 () Int)
(declare-fun cell_5_2 () Int)
(declare-fun cell_6_2 () Int)
(declare-fun cell_7_2 () Int)
(declare-fun cell_8_2 () Int)
(declare-fun cell_9_2 () Int)
(declare-fun cell_1_3 () Int)
(declare-fun cell_2_3 () Int)
(declare-fun cell_3_3 () Int)
(declare-fun cell_4_3 () Int)
(declare-fun cell_5_3 () Int)
(declare-fun cell_6_3 () Int)
(declare-fun cell_7_3 () Int)
(declare-fun cell_8_3 () Int)
(declare-fun cell_9_3 () Int)
(declare-fun cell_1_4 () Int)
(declare-fun cell_2_4 () Int)
(declare-fun cell_3_4 () Int)
(declare-fun cell_4_4 () Int)
(declare-fun cell_5_4 () Int)
(declare-fun cell_6_4 () Int)
(declare-fun cell_7_4 () Int)
(declare-fun cell_8_4 () Int)
(declare-fun cell_9_4 () Int)
(declare-fun cell_1_5 () Int)
(declare-fun cell_2_5 () Int)
(declare-fun cell_3_5 () Int)
(declare-fun cell_4_5 () Int)
(declare-fun cell_5_5 () Int)
(declare-fun cell_6_5 () Int)
(declare-fun cell_7_5 () Int)
(declare-fun cell_8_5 () Int)
(declare-fun cell_9_5 () Int)
(declare-fun cell_1_6 () Int)
(declare-fun cell_2_6 () Int)
(declare-fun cell_3_6 () Int)
(declare-fun cell_4_6 () Int)
(declare-fun cell_5_6 () Int)
(declare-fun cell_6_6 () Int)
(declare-fun cell_7_6 () Int)
(declare-fun cell_8_6 () Int)
(declare-fun cell_9_6 () Int)
(declare-fun cell_1_7 () Int)
(declare-fun cell_2_7 () Int)
(declare-fun cell_3_7 () Int)
(declare-fun cell_4_7 () Int)
(declare-fun cell_5_7 () Int)
(declare-fun cell_6_7 () Int)
(declare-fun cell_7_7 () Int)
(declare-fun cell_8_7 () Int)
(declare-fun cell_9_7 () Int)
(declare-fun cell_1_8 () Int)
(declare-fun cell_2_8 () Int)
(declare-fun cell_3_8 () Int)
(declare-fun cell_4_8 () Int)
(declare-fun cell_5_8 () Int)
(declare-fun cell_6_8 () Int)
(declare-fun cell_7_8 () Int)
(declare-fun cell_8_8 () Int)
(declare-fun cell_9_8 () Int)
(declare-fun cell_1_9 () Int)
(declare-fun cell_2_9 () Int)
(declare-fun cell_3_9 () Int)
(declare-fun cell_4_9 () Int)
(declare-fun cell_5_9 () Int)
(declare-fun cell_6_9 () Int)
(declare-fun cell_7_9 () Int)
(declare-fun cell_8_9 () Int)
(declare-fun cell_9_9 () Int)
(assert
 (let (($x7290 (= cell_1_1 9)))
 (let (($x5006 (= cell_1_1 8)))
 (let (($x8981 (= cell_1_1 7)))
 (let (($x2782 (= cell_1_1 6)))
 (let (($x9648 (= cell_1_1 5)))
 (let (($x8128 (= cell_1_1 4)))
 (let (($x3489 (= cell_1_1 3)))
 (let (($x1883 (= cell_1_1 2)))
 (let (($x7007 (= cell_1_1 1)))
 (or $x7007 $x1883 $x3489 $x8128 $x9648 $x2782 $x8981 $x5006 $x7290)))))))))))
(assert
 (let (($x7083 (= cell_2_1 9)))
 (let (($x4727 (= cell_2_1 8)))
 (let (($x2201 (= cell_2_1 7)))
 (let (($x7328 (= cell_2_1 6)))
 (let (($x5097 (= cell_2_1 5)))
 (let (($x7131 (= cell_2_1 4)))
 (let (($x4209 (= cell_2_1 3)))
 (let (($x9980 (= cell_2_1 2)))
 (let (($x1317 (= cell_2_1 1)))
 (or $x1317 $x9980 $x4209 $x7131 $x5097 $x7328 $x2201 $x4727 $x7083)))))))))))
(assert
 (let (($x8737 (= cell_3_1 9)))
 (let (($x714 (= cell_3_1 8)))
 (let (($x10265 (= cell_3_1 7)))
 (let (($x6473 (= cell_3_1 6)))
 (let (($x3728 (= cell_3_1 5)))
 (let (($x6331 (= cell_3_1 4)))
 (let (($x976 (= cell_3_1 3)))
 (let (($x4959 (= cell_3_1 2)))
 (let (($x6276 (= cell_3_1 1)))
 (or $x6276 $x4959 $x976 $x6331 $x3728 $x6473 $x10265 $x714 $x8737)))))))))))
(assert
 (let (($x711 (= cell_4_1 9)))
 (let (($x4845 (= cell_4_1 8)))
 (let (($x8961 (= cell_4_1 7)))
 (let (($x1790 (= cell_4_1 6)))
 (let (($x1051 (= cell_4_1 5)))
 (let (($x7300 (= cell_4_1 4)))
 (let (($x3814 (= cell_4_1 3)))
 (let (($x6392 (= cell_4_1 2)))
 (let (($x3402 (= cell_4_1 1)))
 (or $x3402 $x6392 $x3814 $x7300 $x1051 $x1790 $x8961 $x4845 $x711)))))))))))
(assert
 (let (($x8579 (= cell_5_1 9)))
 (let (($x8000 (= cell_5_1 8)))
 (let (($x5868 (= cell_5_1 7)))
 (let (($x2884 (= cell_5_1 6)))
 (let (($x1767 (= cell_5_1 5)))
 (let (($x2971 (= cell_5_1 4)))
 (let (($x4103 (= cell_5_1 3)))
 (let (($x5457 (= cell_5_1 2)))
 (let (($x2776 (= cell_5_1 1)))
 (or $x2776 $x5457 $x4103 $x2971 $x1767 $x2884 $x5868 $x8000 $x8579)))))))))))
(assert
 (let (($x137 (= cell_6_1 9)))
 (let (($x6358 (= cell_6_1 8)))
 (let (($x7140 (= cell_6_1 7)))
 (let (($x7307 (= cell_6_1 6)))
 (let (($x7472 (= cell_6_1 5)))
 (let (($x3003 (= cell_6_1 4)))
 (let (($x9774 (= cell_6_1 3)))
 (let (($x1977 (= cell_6_1 2)))
 (let (($x9504 (= cell_6_1 1)))
 (or $x9504 $x1977 $x9774 $x3003 $x7472 $x7307 $x7140 $x6358 $x137)))))))))))
(assert
 (let (($x3752 (= cell_7_1 9)))
 (let (($x9975 (= cell_7_1 8)))
 (let (($x1401 (= cell_7_1 7)))
 (let (($x8338 (= cell_7_1 6)))
 (let (($x7098 (= cell_7_1 5)))
 (let (($x7793 (= cell_7_1 4)))
 (let (($x4771 (= cell_7_1 3)))
 (let (($x2312 (= cell_7_1 2)))
 (let (($x7604 (= cell_7_1 1)))
 (or $x7604 $x2312 $x4771 $x7793 $x7098 $x8338 $x1401 $x9975 $x3752)))))))))))
(assert
 (let (($x5479 (= cell_8_1 9)))
 (let (($x1347 (= cell_8_1 8)))
 (let (($x4030 (= cell_8_1 7)))
 (let (($x2620 (= cell_8_1 6)))
 (let (($x2576 (= cell_8_1 5)))
 (let (($x5873 (= cell_8_1 4)))
 (let (($x7256 (= cell_8_1 3)))
 (let (($x1764 (= cell_8_1 2)))
 (let (($x2028 (= cell_8_1 1)))
 (or $x2028 $x1764 $x7256 $x5873 $x2576 $x2620 $x4030 $x1347 $x5479)))))))))))
(assert
 (let (($x5303 (= cell_9_1 9)))
 (let (($x1824 (= cell_9_1 8)))
 (let (($x2013 (= cell_9_1 7)))
 (let (($x1374 (= cell_9_1 6)))
 (let (($x6297 (= cell_9_1 5)))
 (let (($x5596 (= cell_9_1 4)))
 (let (($x769 (= cell_9_1 3)))
 (let (($x4793 (= cell_9_1 2)))
 (let (($x4478 (= cell_9_1 1)))
 (or $x4478 $x4793 $x769 $x5596 $x6297 $x1374 $x2013 $x1824 $x5303)))))))))))
(assert
 (let (($x377 (= cell_1_2 9)))
 (let (($x5600 (= cell_1_2 8)))
 (let (($x9941 (= cell_1_2 7)))
 (let (($x3921 (= cell_1_2 6)))
 (let (($x10261 (= cell_1_2 5)))
 (let (($x7766 (= cell_1_2 4)))
 (let (($x8042 (= cell_1_2 3)))
 (let (($x4517 (= cell_1_2 2)))
 (let (($x6716 (= cell_1_2 1)))
 (or $x6716 $x4517 $x8042 $x7766 $x10261 $x3921 $x9941 $x5600 $x377)))))))))))
(assert
 (let (($x6982 (= cell_2_2 9)))
 (let (($x10216 (= cell_2_2 8)))
 (let (($x4712 (= cell_2_2 7)))
 (let (($x735 (= cell_2_2 6)))
 (let (($x9268 (= cell_2_2 5)))
 (let (($x661 (= cell_2_2 4)))
 (let (($x4564 (= cell_2_2 3)))
 (let (($x6141 (= cell_2_2 2)))
 (let (($x3751 (= cell_2_2 1)))
 (or $x3751 $x6141 $x4564 $x661 $x9268 $x735 $x4712 $x10216 $x6982)))))))))))
(assert
 (let (($x6127 (= cell_3_2 9)))
 (let (($x9317 (= cell_3_2 8)))
 (let (($x3483 (= cell_3_2 7)))
 (let (($x10092 (= cell_3_2 6)))
 (let (($x2541 (= cell_3_2 5)))
 (let (($x2424 (= cell_3_2 4)))
 (let (($x1806 (= cell_3_2 3)))
 (let (($x1445 (= cell_3_2 2)))
 (let (($x9599 (= cell_3_2 1)))
 (or $x9599 $x1445 $x1806 $x2424 $x2541 $x10092 $x3483 $x9317 $x6127)))))))))))
(assert
 (let (($x2496 (= cell_4_2 9)))
 (let (($x3596 (= cell_4_2 8)))
 (let (($x8494 (= cell_4_2 7)))
 (let (($x3845 (= cell_4_2 6)))
 (let (($x2159 (= cell_4_2 5)))
 (let (($x1673 (= cell_4_2 4)))
 (let (($x994 (= cell_4_2 3)))
 (let (($x5947 (= cell_4_2 2)))
 (let (($x3116 (= cell_4_2 1)))
 (or $x3116 $x5947 $x994 $x1673 $x2159 $x3845 $x8494 $x3596 $x2496)))))))))))
(assert
 (let (($x2648 (= cell_5_2 9)))
 (let (($x107 (= cell_5_2 8)))
 (let (($x4685 (= cell_5_2 7)))
 (let (($x4499 (= cell_5_2 6)))
 (let (($x6193 (= cell_5_2 5)))
 (let (($x7862 (= cell_5_2 4)))
 (let (($x1227 (= cell_5_2 3)))
 (let (($x6024 (= cell_5_2 2)))
 (let (($x568 (= cell_5_2 1)))
 (or $x568 $x6024 $x1227 $x7862 $x6193 $x4499 $x4685 $x107 $x2648)))))))))))
(assert
 (let (($x3159 (= cell_6_2 9)))
 (let (($x10225 (= cell_6_2 8)))
 (let (($x4158 (= cell_6_2 7)))
 (let (($x4512 (= cell_6_2 6)))
 (let (($x6380 (= cell_6_2 5)))
 (let (($x9717 (= cell_6_2 4)))
 (let (($x9387 (= cell_6_2 3)))
 (let (($x5267 (= cell_6_2 2)))
 (let (($x6373 (= cell_6_2 1)))
 (or $x6373 $x5267 $x9387 $x9717 $x6380 $x4512 $x4158 $x10225 $x3159)))))))))))
(assert
 (let (($x8984 (= cell_7_2 9)))
 (let (($x3547 (= cell_7_2 8)))
 (let (($x1344 (= cell_7_2 7)))
 (let (($x3129 (= cell_7_2 6)))
 (let (($x8036 (= cell_7_2 5)))
 (let (($x3972 (= cell_7_2 4)))
 (let (($x8565 (= cell_7_2 3)))
 (let (($x6327 (= cell_7_2 2)))
 (let (($x9798 (= cell_7_2 1)))
 (or $x9798 $x6327 $x8565 $x3972 $x8036 $x3129 $x1344 $x3547 $x8984)))))))))))
(assert
 (let (($x3697 (= cell_8_2 9)))
 (let (($x2719 (= cell_8_2 8)))
 (let (($x7550 (= cell_8_2 7)))
 (let (($x7490 (= cell_8_2 6)))
 (let (($x1426 (= cell_8_2 5)))
 (let (($x5443 (= cell_8_2 4)))
 (let (($x2115 (= cell_8_2 3)))
 (let (($x9636 (= cell_8_2 2)))
 (let (($x473 (= cell_8_2 1)))
 (or $x473 $x9636 $x2115 $x5443 $x1426 $x7490 $x7550 $x2719 $x3697)))))))))))
(assert
 (let (($x1608 (= cell_9_2 9)))
 (let (($x649 (= cell_9_2 8)))
 (let (($x7237 (= cell_9_2 7)))
 (let (($x6225 (= cell_9_2 6)))
 (let (($x4987 (= cell_9_2 5)))
 (let (($x3423 (= cell_9_2 4)))
 (let (($x9094 (= cell_9_2 3)))
 (let (($x631 (= cell_9_2 2)))
 (let (($x4010 (= cell_9_2 1)))
 (or $x4010 $x631 $x9094 $x3423 $x4987 $x6225 $x7237 $x649 $x1608)))))))))))
(assert
 (let (($x2974 (= cell_1_3 9)))
 (let (($x1681 (= cell_1_3 8)))
 (let (($x8357 (= cell_1_3 7)))
 (let (($x205 (= cell_1_3 6)))
 (let (($x2321 (= cell_1_3 5)))
 (let (($x5425 (= cell_1_3 4)))
 (let (($x5961 (= cell_1_3 3)))
 (let (($x7065 (= cell_1_3 2)))
 (let (($x7026 (= cell_1_3 1)))
 (or $x7026 $x7065 $x5961 $x5425 $x2321 $x205 $x8357 $x1681 $x2974)))))))))))
(assert
 (let (($x6689 (= cell_2_3 9)))
 (let (($x4530 (= cell_2_3 8)))
 (let (($x6395 (= cell_2_3 7)))
 (let (($x486 (= cell_2_3 6)))
 (let (($x48 (= cell_2_3 5)))
 (let (($x2729 (= cell_2_3 4)))
 (let (($x9295 (= cell_2_3 3)))
 (let (($x7566 (= cell_2_3 2)))
 (let (($x1983 (= cell_2_3 1)))
 (or $x1983 $x7566 $x9295 $x2729 $x48 $x486 $x6395 $x4530 $x6689)))))))))))
(assert
 (let (($x9565 (= cell_3_3 9)))
 (let (($x2929 (= cell_3_3 8)))
 (let (($x8559 (= cell_3_3 7)))
 (let (($x7341 (= cell_3_3 6)))
 (let (($x680 (= cell_3_3 5)))
 (let (($x8122 (= cell_3_3 4)))
 (let (($x7555 (= cell_3_3 3)))
 (let (($x2804 (= cell_3_3 2)))
 (let (($x9879 (= cell_3_3 1)))
 (or $x9879 $x2804 $x7555 $x8122 $x680 $x7341 $x8559 $x2929 $x9565)))))))))))
(assert
 (let (($x4985 (= cell_4_3 9)))
 (let (($x1584 (= cell_4_3 8)))
 (let (($x4726 (= cell_4_3 7)))
 (let (($x433 (= cell_4_3 6)))
 (let (($x3062 (= cell_4_3 5)))
 (let (($x9850 (= cell_4_3 4)))
 (let (($x8874 (= cell_4_3 3)))
 (let (($x3013 (= cell_4_3 2)))
 (let (($x1578 (= cell_4_3 1)))
 (or $x1578 $x3013 $x8874 $x9850 $x3062 $x433 $x4726 $x1584 $x4985)))))))))))
(assert
 (let (($x8665 (= cell_5_3 9)))
 (let (($x7192 (= cell_5_3 8)))
 (let (($x7554 (= cell_5_3 7)))
 (let (($x7194 (= cell_5_3 6)))
 (let (($x1856 (= cell_5_3 5)))
 (let (($x4168 (= cell_5_3 4)))
 (let (($x2743 (= cell_5_3 3)))
 (let (($x9441 (= cell_5_3 2)))
 (let (($x3196 (= cell_5_3 1)))
 (or $x3196 $x9441 $x2743 $x4168 $x1856 $x7194 $x7554 $x7192 $x8665)))))))))))
(assert
 (let (($x4404 (= cell_6_3 9)))
 (let (($x8186 (= cell_6_3 8)))
 (let (($x7273 (= cell_6_3 7)))
 (let (($x10284 (= cell_6_3 6)))
 (let (($x2937 (= cell_6_3 5)))
 (let (($x6863 (= cell_6_3 4)))
 (let (($x1471 (= cell_6_3 3)))
 (let (($x6914 (= cell_6_3 2)))
 (let (($x9950 (= cell_6_3 1)))
 (or $x9950 $x6914 $x1471 $x6863 $x2937 $x10284 $x7273 $x8186 $x4404)))))))))))
(assert
 (let (($x2302 (= cell_7_3 9)))
 (let (($x6879 (= cell_7_3 8)))
 (let (($x5916 (= cell_7_3 7)))
 (let (($x1922 (= cell_7_3 6)))
 (let (($x9915 (= cell_7_3 5)))
 (let (($x990 (= cell_7_3 4)))
 (let (($x9907 (= cell_7_3 3)))
 (let (($x2926 (= cell_7_3 2)))
 (let (($x7600 (= cell_7_3 1)))
 (or $x7600 $x2926 $x9907 $x990 $x9915 $x1922 $x5916 $x6879 $x2302)))))))))))
(assert
 (let (($x7361 (= cell_8_3 9)))
 (let (($x6231 (= cell_8_3 8)))
 (let (($x1975 (= cell_8_3 7)))
 (let (($x1156 (= cell_8_3 6)))
 (let (($x4938 (= cell_8_3 5)))
 (let (($x298 (= cell_8_3 4)))
 (let (($x4957 (= cell_8_3 3)))
 (let (($x7398 (= cell_8_3 2)))
 (let (($x105 (= cell_8_3 1)))
 (or $x105 $x7398 $x4957 $x298 $x4938 $x1156 $x1975 $x6231 $x7361)))))))))))
(assert
 (let (($x1261 (= cell_9_3 9)))
 (let (($x2637 (= cell_9_3 8)))
 (let (($x136 (= cell_9_3 7)))
 (let (($x7607 (= cell_9_3 6)))
 (let (($x858 (= cell_9_3 5)))
 (let (($x4714 (= cell_9_3 4)))
 (let (($x4597 (= cell_9_3 3)))
 (let (($x8762 (= cell_9_3 2)))
 (let (($x1574 (= cell_9_3 1)))
 (or $x1574 $x8762 $x4597 $x4714 $x858 $x7607 $x136 $x2637 $x1261)))))))))))
(assert
 (let (($x3194 (= cell_1_4 9)))
 (let (($x9919 (= cell_1_4 8)))
 (let (($x9825 (= cell_1_4 7)))
 (let (($x7277 (= cell_1_4 6)))
 (let (($x7125 (= cell_1_4 5)))
 (let (($x2327 (= cell_1_4 4)))
 (let (($x5925 (= cell_1_4 3)))
 (let (($x3416 (= cell_1_4 2)))
 (let (($x7434 (= cell_1_4 1)))
 (or $x7434 $x3416 $x5925 $x2327 $x7125 $x7277 $x9825 $x9919 $x3194)))))))))))
(assert
 (let (($x7545 (= cell_2_4 9)))
 (let (($x217 (= cell_2_4 8)))
 (let (($x3045 (= cell_2_4 7)))
 (let (($x7304 (= cell_2_4 6)))
 (let (($x8930 (= cell_2_4 5)))
 (let (($x5053 (= cell_2_4 4)))
 (let (($x9997 (= cell_2_4 3)))
 (let (($x10025 (= cell_2_4 2)))
 (let (($x5178 (= cell_2_4 1)))
 (or $x5178 $x10025 $x9997 $x5053 $x8930 $x7304 $x3045 $x217 $x7545)))))))))))
(assert
 (let (($x42 (= cell_3_4 9)))
 (let (($x8178 (= cell_3_4 8)))
 (let (($x6278 (= cell_3_4 7)))
 (let (($x3353 (= cell_3_4 6)))
 (let (($x8969 (= cell_3_4 5)))
 (let (($x3551 (= cell_3_4 4)))
 (let (($x7287 (= cell_3_4 3)))
 (let (($x9413 (= cell_3_4 2)))
 (let (($x7184 (= cell_3_4 1)))
 (or $x7184 $x9413 $x7287 $x3551 $x8969 $x3353 $x6278 $x8178 $x42)))))))))))
(assert
 (let (($x7387 (= cell_4_4 9)))
 (let (($x958 (= cell_4_4 8)))
 (let (($x962 (= cell_4_4 7)))
 (let (($x2972 (= cell_4_4 6)))
 (let (($x9571 (= cell_4_4 5)))
 (let (($x617 (= cell_4_4 4)))
 (let (($x4577 (= cell_4_4 3)))
 (let (($x2463 (= cell_4_4 2)))
 (let (($x3332 (= cell_4_4 1)))
 (or $x3332 $x2463 $x4577 $x617 $x9571 $x2972 $x962 $x958 $x7387)))))))))))
(assert
 (let (($x7028 (= cell_5_4 9)))
 (let (($x171 (= cell_5_4 8)))
 (let (($x8722 (= cell_5_4 7)))
 (let (($x1376 (= cell_5_4 6)))
 (let (($x1798 (= cell_5_4 5)))
 (let (($x9491 (= cell_5_4 4)))
 (let (($x1531 (= cell_5_4 3)))
 (let (($x6511 (= cell_5_4 2)))
 (let (($x2875 (= cell_5_4 1)))
 (or $x2875 $x6511 $x1531 $x9491 $x1798 $x1376 $x8722 $x171 $x7028)))))))))))
(assert
 (let (($x8216 (= cell_6_4 9)))
 (let (($x6900 (= cell_6_4 8)))
 (let (($x8613 (= cell_6_4 7)))
 (let (($x10186 (= cell_6_4 6)))
 (let (($x5032 (= cell_6_4 5)))
 (let (($x6335 (= cell_6_4 4)))
 (let (($x10090 (= cell_6_4 3)))
 (let (($x1016 (= cell_6_4 2)))
 (let (($x9447 (= cell_6_4 1)))
 (or $x9447 $x1016 $x10090 $x6335 $x5032 $x10186 $x8613 $x6900 $x8216)))))))))))
(assert
 (let (($x1811 (= cell_7_4 9)))
 (let (($x794 (= cell_7_4 8)))
 (let (($x1823 (= cell_7_4 7)))
 (let (($x5826 (= cell_7_4 6)))
 (let (($x7828 (= cell_7_4 5)))
 (let (($x1226 (= cell_7_4 4)))
 (let (($x3051 (= cell_7_4 3)))
 (let (($x2254 (= cell_7_4 2)))
 (let (($x4852 (= cell_7_4 1)))
 (or $x4852 $x2254 $x3051 $x1226 $x7828 $x5826 $x1823 $x794 $x1811)))))))))))
(assert
 (let (($x8517 (= cell_8_4 9)))
 (let (($x7659 (= cell_8_4 8)))
 (let (($x3628 (= cell_8_4 7)))
 (let (($x1751 (= cell_8_4 6)))
 (let (($x5692 (= cell_8_4 5)))
 (let (($x4966 (= cell_8_4 4)))
 (let (($x7688 (= cell_8_4 3)))
 (let (($x4247 (= cell_8_4 2)))
 (let (($x4351 (= cell_8_4 1)))
 (or $x4351 $x4247 $x7688 $x4966 $x5692 $x1751 $x3628 $x7659 $x8517)))))))))))
(assert
 (let (($x4243 (= cell_9_4 9)))
 (let (($x2079 (= cell_9_4 8)))
 (let (($x6985 (= cell_9_4 7)))
 (let (($x2900 (= cell_9_4 6)))
 (let (($x3973 (= cell_9_4 5)))
 (let (($x6791 (= cell_9_4 4)))
 (let (($x1642 (= cell_9_4 3)))
 (let (($x3696 (= cell_9_4 2)))
 (let (($x4451 (= cell_9_4 1)))
 (or $x4451 $x3696 $x1642 $x6791 $x3973 $x2900 $x6985 $x2079 $x4243)))))))))))
(assert
 (let (($x8786 (= cell_1_5 9)))
 (let (($x9077 (= cell_1_5 8)))
 (let (($x1466 (= cell_1_5 7)))
 (let (($x6266 (= cell_1_5 6)))
 (let (($x755 (= cell_1_5 5)))
 (let (($x5520 (= cell_1_5 4)))
 (let (($x8968 (= cell_1_5 3)))
 (let (($x2392 (= cell_1_5 2)))
 (let (($x5468 (= cell_1_5 1)))
 (or $x5468 $x2392 $x8968 $x5520 $x755 $x6266 $x1466 $x9077 $x8786)))))))))))
(assert
 (let (($x2967 (= cell_2_5 9)))
 (let (($x7484 (= cell_2_5 8)))
 (let (($x5686 (= cell_2_5 7)))
 (let (($x1740 (= cell_2_5 6)))
 (let (($x9771 (= cell_2_5 5)))
 (let (($x563 (= cell_2_5 4)))
 (let (($x6324 (= cell_2_5 3)))
 (let (($x860 (= cell_2_5 2)))
 (let (($x8175 (= cell_2_5 1)))
 (or $x8175 $x860 $x6324 $x563 $x9771 $x1740 $x5686 $x7484 $x2967)))))))))))
(assert
 (let (($x1343 (= cell_3_5 9)))
 (let (($x1599 (= cell_3_5 8)))
 (let (($x1985 (= cell_3_5 7)))
 (let (($x2742 (= cell_3_5 6)))
 (let (($x4590 (= cell_3_5 5)))
 (let (($x5088 (= cell_3_5 4)))
 (let (($x1732 (= cell_3_5 3)))
 (let (($x4977 (= cell_3_5 2)))
 (let (($x2071 (= cell_3_5 1)))
 (or $x2071 $x4977 $x1732 $x5088 $x4590 $x2742 $x1985 $x1599 $x1343)))))))))))
(assert
 (let (($x6968 (= cell_4_5 9)))
 (let (($x6205 (= cell_4_5 8)))
 (let (($x9533 (= cell_4_5 7)))
 (let (($x4932 (= cell_4_5 6)))
 (let (($x9204 (= cell_4_5 5)))
 (let (($x8886 (= cell_4_5 4)))
 (let (($x2111 (= cell_4_5 3)))
 (let (($x5903 (= cell_4_5 2)))
 (let (($x400 (= cell_4_5 1)))
 (or $x400 $x5903 $x2111 $x8886 $x9204 $x4932 $x9533 $x6205 $x6968)))))))))))
(assert
 (let (($x9867 (= cell_5_5 9)))
 (let (($x7641 (= cell_5_5 8)))
 (let (($x8360 (= cell_5_5 7)))
 (let (($x5611 (= cell_5_5 6)))
 (let (($x9472 (= cell_5_5 5)))
 (let (($x2455 (= cell_5_5 4)))
 (let (($x964 (= cell_5_5 3)))
 (let (($x8104 (= cell_5_5 2)))
 (let (($x6337 (= cell_5_5 1)))
 (or $x6337 $x8104 $x964 $x2455 $x9472 $x5611 $x8360 $x7641 $x9867)))))))))))
(assert
 (let (($x2507 (= cell_6_5 9)))
 (let (($x2196 (= cell_6_5 8)))
 (let (($x9821 (= cell_6_5 7)))
 (let (($x591 (= cell_6_5 6)))
 (let (($x9782 (= cell_6_5 5)))
 (let (($x1615 (= cell_6_5 4)))
 (let (($x6995 (= cell_6_5 3)))
 (let (($x6483 (= cell_6_5 2)))
 (let (($x1233 (= cell_6_5 1)))
 (or $x1233 $x6483 $x6995 $x1615 $x9782 $x591 $x9821 $x2196 $x2507)))))))))))
(assert
 (let (($x9155 (= cell_7_5 9)))
 (let (($x1121 (= cell_7_5 8)))
 (let (($x8372 (= cell_7_5 7)))
 (let (($x10266 (= cell_7_5 6)))
 (let (($x9863 (= cell_7_5 5)))
 (let (($x2363 (= cell_7_5 4)))
 (let (($x292 (= cell_7_5 3)))
 (let (($x5620 (= cell_7_5 2)))
 (let (($x6199 (= cell_7_5 1)))
 (or $x6199 $x5620 $x292 $x2363 $x9863 $x10266 $x8372 $x1121 $x9155)))))))))))
(assert
 (let (($x7420 (= cell_8_5 9)))
 (let (($x7582 (= cell_8_5 8)))
 (let (($x5935 (= cell_8_5 7)))
 (let (($x468 (= cell_8_5 6)))
 (let (($x8100 (= cell_8_5 5)))
 (let (($x2037 (= cell_8_5 4)))
 (let (($x210 (= cell_8_5 3)))
 (let (($x7515 (= cell_8_5 2)))
 (let (($x1551 (= cell_8_5 1)))
 (or $x1551 $x7515 $x210 $x2037 $x8100 $x468 $x5935 $x7582 $x7420)))))))))))
(assert
 (let (($x9372 (= cell_9_5 9)))
 (let (($x4799 (= cell_9_5 8)))
 (let (($x10158 (= cell_9_5 7)))
 (let (($x3830 (= cell_9_5 6)))
 (let (($x3266 (= cell_9_5 5)))
 (let (($x9066 (= cell_9_5 4)))
 (let (($x7665 (= cell_9_5 3)))
 (let (($x2335 (= cell_9_5 2)))
 (let (($x10182 (= cell_9_5 1)))
 (or $x10182 $x2335 $x7665 $x9066 $x3266 $x3830 $x10158 $x4799 $x9372)))))))))))
(assert
 (let (($x1455 (= cell_1_6 9)))
 (let (($x452 (= cell_1_6 8)))
 (let (($x6481 (= cell_1_6 7)))
 (let (($x1863 (= cell_1_6 6)))
 (let (($x4391 (= cell_1_6 5)))
 (let (($x2333 (= cell_1_6 4)))
 (let (($x8451 (= cell_1_6 3)))
 (let (($x2514 (= cell_1_6 2)))
 (let (($x9428 (= cell_1_6 1)))
 (or $x9428 $x2514 $x8451 $x2333 $x4391 $x1863 $x6481 $x452 $x1455)))))))))))
(assert
 (let (($x5515 (= cell_2_6 9)))
 (let (($x6657 (= cell_2_6 8)))
 (let (($x8392 (= cell_2_6 7)))
 (let (($x6432 (= cell_2_6 6)))
 (let (($x6427 (= cell_2_6 5)))
 (let (($x9876 (= cell_2_6 4)))
 (let (($x2751 (= cell_2_6 3)))
 (let (($x25 (= cell_2_6 2)))
 (let (($x6006 (= cell_2_6 1)))
 (or $x6006 $x25 $x2751 $x9876 $x6427 $x6432 $x8392 $x6657 $x5515)))))))))))
(assert
 (let (($x3801 (= cell_3_6 9)))
 (let (($x2492 (= cell_3_6 8)))
 (let (($x2833 (= cell_3_6 7)))
 (let (($x2573 (= cell_3_6 6)))
 (let (($x3942 (= cell_3_6 5)))
 (let (($x5995 (= cell_3_6 4)))
 (let (($x6563 (= cell_3_6 3)))
 (let (($x4792 (= cell_3_6 2)))
 (let (($x8340 (= cell_3_6 1)))
 (or $x8340 $x4792 $x6563 $x5995 $x3942 $x2573 $x2833 $x2492 $x3801)))))))))))
(assert
 (let (($x1028 (= cell_4_6 9)))
 (let (($x4531 (= cell_4_6 8)))
 (let (($x6445 (= cell_4_6 7)))
 (let (($x184 (= cell_4_6 6)))
 (let (($x2614 (= cell_4_6 5)))
 (let (($x6469 (= cell_4_6 4)))
 (let (($x879 (= cell_4_6 3)))
 (let (($x8998 (= cell_4_6 2)))
 (let (($x2577 (= cell_4_6 1)))
 (or $x2577 $x8998 $x879 $x6469 $x2614 $x184 $x6445 $x4531 $x1028)))))))))))
(assert
 (let (($x1980 (= cell_5_6 9)))
 (let (($x9949 (= cell_5_6 8)))
 (let (($x7746 (= cell_5_6 7)))
 (let (($x2273 (= cell_5_6 6)))
 (let (($x2491 (= cell_5_6 5)))
 (let (($x5261 (= cell_5_6 4)))
 (let (($x1815 (= cell_5_6 3)))
 (let (($x5179 (= cell_5_6 2)))
 (let (($x1079 (= cell_5_6 1)))
 (or $x1079 $x5179 $x1815 $x5261 $x2491 $x2273 $x7746 $x9949 $x1980)))))))))))
(assert
 (let (($x4490 (= cell_6_6 9)))
 (let (($x3679 (= cell_6_6 8)))
 (let (($x3922 (= cell_6_6 7)))
 (let (($x8725 (= cell_6_6 6)))
 (let (($x7195 (= cell_6_6 5)))
 (let (($x5805 (= cell_6_6 4)))
 (let (($x7654 (= cell_6_6 3)))
 (let (($x6751 (= cell_6_6 2)))
 (let (($x10010 (= cell_6_6 1)))
 (or $x10010 $x6751 $x7654 $x5805 $x7195 $x8725 $x3922 $x3679 $x4490)))))))))))
(assert
 (let (($x6289 (= cell_7_6 9)))
 (let (($x6081 (= cell_7_6 8)))
 (let (($x9281 (= cell_7_6 7)))
 (let (($x7938 (= cell_7_6 6)))
 (let (($x8251 (= cell_7_6 5)))
 (let (($x2780 (= cell_7_6 4)))
 (let (($x739 (= cell_7_6 3)))
 (let (($x1179 (= cell_7_6 2)))
 (let (($x491 (= cell_7_6 1)))
 (or $x491 $x1179 $x739 $x2780 $x8251 $x7938 $x9281 $x6081 $x6289)))))))))))
(assert
 (let (($x2624 (= cell_8_6 9)))
 (let (($x6779 (= cell_8_6 8)))
 (let (($x2981 (= cell_8_6 7)))
 (let (($x4899 (= cell_8_6 6)))
 (let (($x7452 (= cell_8_6 5)))
 (let (($x7976 (= cell_8_6 4)))
 (let (($x8640 (= cell_8_6 3)))
 (let (($x2665 (= cell_8_6 2)))
 (let (($x7575 (= cell_8_6 1)))
 (or $x7575 $x2665 $x8640 $x7976 $x7452 $x4899 $x2981 $x6779 $x2624)))))))))))
(assert
 (let (($x9476 (= cell_9_6 9)))
 (let (($x5150 (= cell_9_6 8)))
 (let (($x9946 (= cell_9_6 7)))
 (let (($x275 (= cell_9_6 6)))
 (let (($x9002 (= cell_9_6 5)))
 (let (($x593 (= cell_9_6 4)))
 (let (($x4871 (= cell_9_6 3)))
 (let (($x5282 (= cell_9_6 2)))
 (let (($x9630 (= cell_9_6 1)))
 (or $x9630 $x5282 $x4871 $x593 $x9002 $x275 $x9946 $x5150 $x9476)))))))))))
(assert
 (let (($x3899 (= cell_1_7 9)))
 (let (($x5262 (= cell_1_7 8)))
 (let (($x3820 (= cell_1_7 7)))
 (let (($x1839 (= cell_1_7 6)))
 (let (($x6203 (= cell_1_7 5)))
 (let (($x1603 (= cell_1_7 4)))
 (let (($x8023 (= cell_1_7 3)))
 (let (($x4756 (= cell_1_7 2)))
 (let (($x1331 (= cell_1_7 1)))
 (or $x1331 $x4756 $x8023 $x1603 $x6203 $x1839 $x3820 $x5262 $x3899)))))))))))
(assert
 (let (($x2621 (= cell_2_7 9)))
 (let (($x1354 (= cell_2_7 8)))
 (let (($x3833 (= cell_2_7 7)))
 (let (($x6214 (= cell_2_7 6)))
 (let (($x259 (= cell_2_7 5)))
 (let (($x546 (= cell_2_7 4)))
 (let (($x797 (= cell_2_7 3)))
 (let (($x4013 (= cell_2_7 2)))
 (let (($x5829 (= cell_2_7 1)))
 (or $x5829 $x4013 $x797 $x546 $x259 $x6214 $x3833 $x1354 $x2621)))))))))))
(assert
 (let (($x9299 (= cell_3_7 9)))
 (let (($x5924 (= cell_3_7 8)))
 (let (($x4854 (= cell_3_7 7)))
 (let (($x5467 (= cell_3_7 6)))
 (let (($x4781 (= cell_3_7 5)))
 (let (($x889 (= cell_3_7 4)))
 (let (($x2987 (= cell_3_7 3)))
 (let (($x201 (= cell_3_7 2)))
 (let (($x7293 (= cell_3_7 1)))
 (or $x7293 $x201 $x2987 $x889 $x4781 $x5467 $x4854 $x5924 $x9299)))))))))))
(assert
 (let (($x6189 (= cell_4_7 9)))
 (let (($x3989 (= cell_4_7 8)))
 (let (($x9288 (= cell_4_7 7)))
 (let (($x9239 (= cell_4_7 6)))
 (let (($x5271 (= cell_4_7 5)))
 (let (($x2958 (= cell_4_7 4)))
 (let (($x9871 (= cell_4_7 3)))
 (let (($x6168 (= cell_4_7 2)))
 (let (($x6633 (= cell_4_7 1)))
 (or $x6633 $x6168 $x9871 $x2958 $x5271 $x9239 $x9288 $x3989 $x6189)))))))))))
(assert
 (let (($x7310 (= cell_5_7 9)))
 (let (($x2114 (= cell_5_7 8)))
 (let (($x7419 (= cell_5_7 7)))
 (let (($x2343 (= cell_5_7 6)))
 (let (($x1776 (= cell_5_7 5)))
 (let (($x209 (= cell_5_7 4)))
 (let (($x2647 (= cell_5_7 3)))
 (let (($x323 (= cell_5_7 2)))
 (let (($x8339 (= cell_5_7 1)))
 (or $x8339 $x323 $x2647 $x209 $x1776 $x2343 $x7419 $x2114 $x7310)))))))))))
(assert
 (let (($x2820 (= cell_6_7 9)))
 (let (($x10192 (= cell_6_7 8)))
 (let (($x9039 (= cell_6_7 7)))
 (let (($x3007 (= cell_6_7 6)))
 (let (($x7719 (= cell_6_7 5)))
 (let (($x4241 (= cell_6_7 4)))
 (let (($x9731 (= cell_6_7 3)))
 (let (($x8803 (= cell_6_7 2)))
 (let (($x7602 (= cell_6_7 1)))
 (or $x7602 $x8803 $x9731 $x4241 $x7719 $x3007 $x9039 $x10192 $x2820)))))))))))
(assert
 (let (($x6414 (= cell_7_7 9)))
 (let (($x1990 (= cell_7_7 8)))
 (let (($x4630 (= cell_7_7 7)))
 (let (($x2093 (= cell_7_7 6)))
 (let (($x4754 (= cell_7_7 5)))
 (let (($x6074 (= cell_7_7 4)))
 (let (($x2459 (= cell_7_7 3)))
 (let (($x2933 (= cell_7_7 2)))
 (let (($x3689 (= cell_7_7 1)))
 (or $x3689 $x2933 $x2459 $x6074 $x4754 $x2093 $x4630 $x1990 $x6414)))))))))))
(assert
 (let (($x9419 (= cell_8_7 9)))
 (let (($x8408 (= cell_8_7 8)))
 (let (($x1291 (= cell_8_7 7)))
 (let (($x8318 (= cell_8_7 6)))
 (let (($x4674 (= cell_8_7 5)))
 (let (($x7839 (= cell_8_7 4)))
 (let (($x7453 (= cell_8_7 3)))
 (let (($x9142 (= cell_8_7 2)))
 (let (($x8348 (= cell_8_7 1)))
 (or $x8348 $x9142 $x7453 $x7839 $x4674 $x8318 $x1291 $x8408 $x9419)))))))))))
(assert
 (let (($x4515 (= cell_9_7 9)))
 (let (($x3032 (= cell_9_7 8)))
 (let (($x1145 (= cell_9_7 7)))
 (let (($x765 (= cell_9_7 6)))
 (let (($x7620 (= cell_9_7 5)))
 (let (($x6212 (= cell_9_7 4)))
 (let (($x9439 (= cell_9_7 3)))
 (let (($x4403 (= cell_9_7 2)))
 (let (($x7935 (= cell_9_7 1)))
 (or $x7935 $x4403 $x9439 $x6212 $x7620 $x765 $x1145 $x3032 $x4515)))))))))))
(assert
 (let (($x10079 (= cell_1_8 9)))
 (let (($x8864 (= cell_1_8 8)))
 (let (($x2985 (= cell_1_8 7)))
 (let (($x10293 (= cell_1_8 6)))
 (let (($x5263 (= cell_1_8 5)))
 (let (($x464 (= cell_1_8 4)))
 (let (($x9693 (= cell_1_8 3)))
 (let (($x2329 (= cell_1_8 2)))
 (let (($x3456 (= cell_1_8 1)))
 (or $x3456 $x2329 $x9693 $x464 $x5263 $x10293 $x2985 $x8864 $x10079)))))))))))
(assert
 (let (($x5604 (= cell_2_8 9)))
 (let (($x9490 (= cell_2_8 8)))
 (let (($x3647 (= cell_2_8 7)))
 (let (($x9535 (= cell_2_8 6)))
 (let (($x10166 (= cell_2_8 5)))
 (let (($x8334 (= cell_2_8 4)))
 (let (($x2695 (= cell_2_8 3)))
 (let (($x9151 (= cell_2_8 2)))
 (let (($x18 (= cell_2_8 1)))
 (or $x18 $x9151 $x2695 $x8334 $x10166 $x9535 $x3647 $x9490 $x5604)))))))))))
(assert
 (let (($x6513 (= cell_3_8 9)))
 (let (($x5901 (= cell_3_8 8)))
 (let (($x1942 (= cell_3_8 7)))
 (let (($x1322 (= cell_3_8 6)))
 (let (($x2036 (= cell_3_8 5)))
 (let (($x600 (= cell_3_8 4)))
 (let (($x4504 (= cell_3_8 3)))
 (let (($x320 (= cell_3_8 2)))
 (let (($x8250 (= cell_3_8 1)))
 (or $x8250 $x320 $x4504 $x600 $x2036 $x1322 $x1942 $x5901 $x6513)))))))))))
(assert
 (let (($x1729 (= cell_4_8 9)))
 (let (($x1249 (= cell_4_8 8)))
 (let (($x9928 (= cell_4_8 7)))
 (let (($x2862 (= cell_4_8 6)))
 (let (($x4065 (= cell_4_8 5)))
 (let (($x9168 (= cell_4_8 4)))
 (let (($x8610 (= cell_4_8 3)))
 (let (($x2563 (= cell_4_8 2)))
 (let (($x7905 (= cell_4_8 1)))
 (or $x7905 $x2563 $x8610 $x9168 $x4065 $x2862 $x9928 $x1249 $x1729)))))))))))
(assert
 (let (($x3745 (= cell_5_8 9)))
 (let (($x1858 (= cell_5_8 8)))
 (let (($x1753 (= cell_5_8 7)))
 (let (($x8656 (= cell_5_8 6)))
 (let (($x3937 (= cell_5_8 5)))
 (let (($x3394 (= cell_5_8 4)))
 (let (($x3226 (= cell_5_8 3)))
 (let (($x8319 (= cell_5_8 2)))
 (let (($x997 (= cell_5_8 1)))
 (or $x997 $x8319 $x3226 $x3394 $x3937 $x8656 $x1753 $x1858 $x3745)))))))))))
(assert
 (let (($x1240 (= cell_6_8 9)))
 (let (($x8571 (= cell_6_8 8)))
 (let (($x9993 (= cell_6_8 7)))
 (let (($x2241 (= cell_6_8 6)))
 (let (($x816 (= cell_6_8 5)))
 (let (($x5269 (= cell_6_8 4)))
 (let (($x6185 (= cell_6_8 3)))
 (let (($x8091 (= cell_6_8 2)))
 (let (($x8069 (= cell_6_8 1)))
 (or $x8069 $x8091 $x6185 $x5269 $x816 $x2241 $x9993 $x8571 $x1240)))))))))))
(assert
 (let (($x3733 (= cell_7_8 9)))
 (let (($x1203 (= cell_7_8 8)))
 (let (($x3251 (= cell_7_8 7)))
 (let (($x4141 (= cell_7_8 6)))
 (let (($x4191 (= cell_7_8 5)))
 (let (($x7312 (= cell_7_8 4)))
 (let (($x979 (= cell_7_8 3)))
 (let (($x4291 (= cell_7_8 2)))
 (let (($x3793 (= cell_7_8 1)))
 (or $x3793 $x4291 $x979 $x7312 $x4191 $x4141 $x3251 $x1203 $x3733)))))))))))
(assert
 (let (($x8240 (= cell_8_8 9)))
 (let (($x12 (= cell_8_8 8)))
 (let (($x7626 (= cell_8_8 7)))
 (let (($x7777 (= cell_8_8 6)))
 (let (($x3723 (= cell_8_8 5)))
 (let (($x710 (= cell_8_8 4)))
 (let (($x7335 (= cell_8_8 3)))
 (let (($x6072 (= cell_8_8 2)))
 (let (($x3106 (= cell_8_8 1)))
 (or $x3106 $x6072 $x7335 $x710 $x3723 $x7777 $x7626 $x12 $x8240)))))))))))
(assert
 (let (($x1482 (= cell_9_8 9)))
 (let (($x2524 (= cell_9_8 8)))
 (let (($x7003 (= cell_9_8 7)))
 (let (($x2532 (= cell_9_8 6)))
 (let (($x142 (= cell_9_8 5)))
 (let (($x8971 (= cell_9_8 4)))
 (let (($x193 (= cell_9_8 3)))
 (let (($x8368 (= cell_9_8 2)))
 (let (($x487 (= cell_9_8 1)))
 (or $x487 $x8368 $x193 $x8971 $x142 $x2532 $x7003 $x2524 $x1482)))))))))))
(assert
 (let (($x909 (= cell_1_9 9)))
 (let (($x2206 (= cell_1_9 8)))
 (let (($x7446 (= cell_1_9 7)))
 (let (($x7435 (= cell_1_9 6)))
 (let (($x7379 (= cell_1_9 5)))
 (let (($x358 (= cell_1_9 4)))
 (let (($x4612 (= cell_1_9 3)))
 (let (($x4260 (= cell_1_9 2)))
 (let (($x3711 (= cell_1_9 1)))
 (or $x3711 $x4260 $x4612 $x358 $x7379 $x7435 $x7446 $x2206 $x909)))))))))))
(assert
 (let (($x3338 (= cell_2_9 9)))
 (let (($x6240 (= cell_2_9 8)))
 (let (($x10175 (= cell_2_9 7)))
 (let (($x2167 (= cell_2_9 6)))
 (let (($x10286 (= cell_2_9 5)))
 (let (($x4521 (= cell_2_9 4)))
 (let (($x9098 (= cell_2_9 3)))
 (let (($x5716 (= cell_2_9 2)))
 (let (($x7977 (= cell_2_9 1)))
 (or $x7977 $x5716 $x9098 $x4521 $x10286 $x2167 $x10175 $x6240 $x3338)))))))))))
(assert
 (let (($x7942 (= cell_3_9 9)))
 (let (($x4658 (= cell_3_9 8)))
 (let (($x2609 (= cell_3_9 7)))
 (let (($x8006 (= cell_3_9 6)))
 (let (($x6102 (= cell_3_9 5)))
 (let (($x1390 (= cell_3_9 4)))
 (let (($x9415 (= cell_3_9 3)))
 (let (($x6760 (= cell_3_9 2)))
 (let (($x5735 (= cell_3_9 1)))
 (or $x5735 $x6760 $x9415 $x1390 $x6102 $x8006 $x2609 $x4658 $x7942)))))))))))
(assert
 (let (($x1661 (= cell_4_9 9)))
 (let (($x1144 (= cell_4_9 8)))
 (let (($x3053 (= cell_4_9 7)))
 (let (($x7836 (= cell_4_9 6)))
 (let (($x10083 (= cell_4_9 5)))
 (let (($x882 (= cell_4_9 4)))
 (let (($x8028 (= cell_4_9 3)))
 (let (($x4211 (= cell_4_9 2)))
 (let (($x3829 (= cell_4_9 1)))
 (or $x3829 $x4211 $x8028 $x882 $x10083 $x7836 $x3053 $x1144 $x1661)))))))))))
(assert
 (let (($x4774 (= cell_5_9 9)))
 (let (($x2959 (= cell_5_9 8)))
 (let (($x5597 (= cell_5_9 7)))
 (let (($x6355 (= cell_5_9 6)))
 (let (($x3178 (= cell_5_9 5)))
 (let (($x280 (= cell_5_9 4)))
 (let (($x2805 (= cell_5_9 3)))
 (let (($x6117 (= cell_5_9 2)))
 (let (($x6490 (= cell_5_9 1)))
 (or $x6490 $x6117 $x2805 $x280 $x3178 $x6355 $x5597 $x2959 $x4774)))))))))))
(assert
 (let (($x5517 (= cell_6_9 9)))
 (let (($x3253 (= cell_6_9 8)))
 (let (($x7399 (= cell_6_9 7)))
 (let (($x5778 (= cell_6_9 6)))
 (let (($x1373 (= cell_6_9 5)))
 (let (($x9087 (= cell_6_9 4)))
 (let (($x5326 (= cell_6_9 3)))
 (let (($x3995 (= cell_6_9 2)))
 (let (($x5910 (= cell_6_9 1)))
 (or $x5910 $x3995 $x5326 $x9087 $x1373 $x5778 $x7399 $x3253 $x5517)))))))))))
(assert
 (let (($x2388 (= cell_7_9 9)))
 (let (($x7413 (= cell_7_9 8)))
 (let (($x3135 (= cell_7_9 7)))
 (let (($x6167 (= cell_7_9 6)))
 (let (($x1127 (= cell_7_9 5)))
 (let (($x5569 (= cell_7_9 4)))
 (let (($x8424 (= cell_7_9 3)))
 (let (($x4644 (= cell_7_9 2)))
 (let (($x6014 (= cell_7_9 1)))
 (or $x6014 $x4644 $x8424 $x5569 $x1127 $x6167 $x3135 $x7413 $x2388)))))))))))
(assert
 (let (($x9120 (= cell_8_9 9)))
 (let (($x2845 (= cell_8_9 8)))
 (let (($x6614 (= cell_8_9 7)))
 (let (($x1110 (= cell_8_9 6)))
 (let (($x8509 (= cell_8_9 5)))
 (let (($x618 (= cell_8_9 4)))
 (let (($x1408 (= cell_8_9 3)))
 (let (($x8224 (= cell_8_9 2)))
 (let (($x1414 (= cell_8_9 1)))
 (or $x1414 $x8224 $x1408 $x618 $x8509 $x1110 $x6614 $x2845 $x9120)))))))))))
(assert
 (let (($x10096 (= cell_9_9 9)))
 (let (($x5385 (= cell_9_9 8)))
 (let (($x4492 (= cell_9_9 7)))
 (let (($x692 (= cell_9_9 6)))
 (let (($x5099 (= cell_9_9 5)))
 (let (($x2065 (= cell_9_9 4)))
 (let (($x4350 (= cell_9_9 3)))
 (let (($x2979 (= cell_9_9 2)))
 (let (($x174 (= cell_9_9 1)))
 (or $x174 $x2979 $x4350 $x2065 $x5099 $x692 $x4492 $x5385 $x10096)))))))))))
(assert
 (and (distinct cell_1_1 cell_1_2 cell_1_3 cell_1_4 cell_1_5 cell_1_6 cell_1_7 cell_1_8 cell_1_9) true))
(assert
 (and (distinct cell_2_1 cell_2_2 cell_2_3 cell_2_4 cell_2_5 cell_2_6 cell_2_7 cell_2_8 cell_2_9) true))
(assert
 (and (distinct cell_3_1 cell_3_2 cell_3_3 cell_3_4 cell_3_5 cell_3_6 cell_3_7 cell_3_8 cell_3_9) true))
(assert
 (and (distinct cell_4_1 cell_4_2 cell_4_3 cell_4_4 cell_4_5 cell_4_6 cell_4_7 cell_4_8 cell_4_9) true))
(assert
 (and (distinct cell_5_1 cell_5_2 cell_5_3 cell_5_4 cell_5_5 cell_5_6 cell_5_7 cell_5_8 cell_5_9) true))
(assert
 (and (distinct cell_6_1 cell_6_2 cell_6_3 cell_6_4 cell_6_5 cell_6_6 cell_6_7 cell_6_8 cell_6_9) true))
(assert
 (and (distinct cell_7_1 cell_7_2 cell_7_3 cell_7_4 cell_7_5 cell_7_6 cell_7_7 cell_7_8 cell_7_9) true))
(assert
 (and (distinct cell_8_1 cell_8_2 cell_8_3 cell_8_4 cell_8_5 cell_8_6 cell_8_7 cell_8_8 cell_8_9) true))
(assert
 (and (distinct cell_9_1 cell_9_2 cell_9_3 cell_9_4 cell_9_5 cell_9_6 cell_9_7 cell_9_8 cell_9_9) true))
(assert
 (and (distinct cell_1_1 cell_2_1 cell_3_1 cell_4_1 cell_5_1 cell_6_1 cell_7_1 cell_8_1 cell_9_1) true))
(assert
 (and (distinct cell_1_2 cell_2_2 cell_3_2 cell_4_2 cell_5_2 cell_6_2 cell_7_2 cell_8_2 cell_9_2) true))
(assert
 (and (distinct cell_1_3 cell_2_3 cell_3_3 cell_4_3 cell_5_3 cell_6_3 cell_7_3 cell_8_3 cell_9_3) true))
(assert
 (and (distinct cell_1_4 cell_2_4 cell_3_4 cell_4_4 cell_5_4 cell_6_4 cell_7_4 cell_8_4 cell_9_4) true))
(assert
 (and (distinct cell_1_5 cell_2_5 cell_3_5 cell_4_5 cell_5_5 cell_6_5 cell_7_5 cell_8_5 cell_9_5) true))
(assert
 (and (distinct cell_1_6 cell_2_6 cell_3_6 cell_4_6 cell_5_6 cell_6_6 cell_7_6 cell_8_6 cell_9_6) true))
(assert
 (and (distinct cell_1_7 cell_2_7 cell_3_7 cell_4_7 cell_5_7 cell_6_7 cell_7_7 cell_8_7 cell_9_7) true))
(assert
 (and (distinct cell_1_8 cell_2_8 cell_3_8 cell_4_8 cell_5_8 cell_6_8 cell_7_8 cell_8_8 cell_9_8) true))
(assert
 (and (distinct cell_1_9 cell_2_9 cell_3_9 cell_4_9 cell_5_9 cell_6_9 cell_7_9 cell_8_9 cell_9_9) true))
(assert
 (and (distinct cell_1_1 cell_1_2 cell_1_3 cell_2_1 cell_2_2 cell_2_3 cell_3_1 cell_3_2 cell_3_3) true))
(assert
 (and (distinct cell_1_4 cell_1_5 cell_1_6 cell_2_4 cell_2_5 cell_2_6 cell_3_4 cell_3_5 cell_3_6) true))
(assert
 (and (distinct cell_1_7 cell_1_8 cell_1_9 cell_2_7 cell_2_8 cell_2_9 cell_3_7 cell_3_8 cell_3_9) true))
(assert
 (and (distinct cell_4_1 cell_4_2 cell_4_3 cell_5_1 cell_5_2 cell_5_3 cell_6_1 cell_6_2 cell_6_3) true))
(assert
 (and (distinct cell_4_4 cell_4_5 cell_4_6 cell_5_4 cell_5_5 cell_5_6 cell_6_4 cell_6_5 cell_6_6) true))
(assert
 (and (distinct cell_4_7 cell_4_8 cell_4_9 cell_5_7 cell_5_8 cell_5_9 cell_6_7 cell_6_8 cell_6_9) true))
(assert
 (and (distinct cell_7_1 cell_7_2 cell_7_3 cell_8_1 cell_8_2 cell_8_3 cell_9_1 cell_9_2 cell_9_3) true))
(assert
 (and (distinct cell_7_4 cell_7_5 cell_7_6 cell_8_4 cell_8_5 cell_8_6 cell_9_4 cell_9_5 cell_9_6) true))
(assert
 (and (distinct cell_7_7 cell_7_8 cell_7_9 cell_8_7 cell_8_8 cell_8_9 cell_9_7 cell_9_8 cell_9_9) true))
(assert
 (let (($x9897 (and (distinct cell_5_9 cell_6_8 cell_7_7 cell_8_6) true)))
 (let (($x1984 (and (distinct cell_2_9 cell_3_8 cell_4_7 cell_5_6 cell_6_5 cell_7_4 cell_8_3 cell_9_2) true)))
 (let (($x3910 (and (distinct cell_1_8 cell_2_7 cell_3_6 cell_4_5 cell_5_4 cell_6_3 cell_7_2 cell_8_1) true)))
 (let (($x9062 (and (distinct cell_1_5 cell_2_4 cell_3_3 cell_4_2) true)))
 (let (($x2756 (and (distinct cell_5_1 cell_6_2 cell_7_3 cell_8_4) true)))
 (let (($x5881 (and (distinct cell_2_1 cell_3_2 cell_4_3 cell_5_4 cell_6_5 cell_7_6 cell_8_7 cell_9_8) true)))
 (let (($x2210 (and (distinct cell_1_2 cell_2_3 cell_3_4 cell_4_5 cell_5_6 cell_6_7 cell_7_8 cell_8_9) true)))
 (let (($x759 (and (distinct cell_1_5 cell_2_6 cell_3_7 cell_4_8) true)))
 (and $x759 $x2210 $x5881 $x2756 $x9062 $x3910 $x1984 $x9897))))))))))
(assert
 (= cell_1_9 1))
(assert
 (= cell_2_1 1))
(assert
 (= cell_3_4 1))
(assert
 (= cell_4_8 1))
(assert
 (= cell_5_3 1))
(assert
 (= cell_6_6 1))
(assert
 (= cell_7_7 1))
(assert
 (= cell_8_5 1))
(assert
 (= cell_9_2 1))
(assert
 (= cell_1_2 2))
(assert
 (= cell_2_4 2))
(assert
 (= cell_3_7 2))
(assert
 (= cell_4_9 2))
(assert
 (= cell_5_5 2))
(assert
 (= cell_6_3 2))
(assert
 (= cell_7_1 2))
(assert
 (= cell_8_6 2))
(assert
 (= cell_9_8 2))
(assert
 (= cell_1_5 3))
(check-sat)

